\ Model assignment
\ LP format - for model browsing. Use MPS format to capture full model detail.
Maximize
  3.4 x[0,91,10,90,70] + 7.009772228646444 x[0,91,10,90,79]
   + 3.98113883008419 x[0,91,10,73,42] + 6.701162633521314 x[0,91,10,80,15]
   + 6.305124837953327 x[0,91,10,90,35] + 7.349747468305832 x[0,91,10,70,7]
   + 6.207886552931955 x[0,91,10,81,14]
   + 6.040054944640259 x[0,91,10,91,78]
   + 6.305124837953327 x[0,91,10,70,26] + 5.22842712474619 x[0,91,10,81,45]
   - 8.5 x[1,91,10,91,81] + 5.601562118716425 x[0,91,10,80,45]
   + 3.814213562373095 x[0,91,10,73,51]
   + 6.431128874149275 x[0,91,10,92,59]
   + 6.672001872658765 x[0,91,10,90,68]
   + 6.305124837953327 x[0,91,10,92,37] + 4.63606797749979 x[0,91,10,91,53]
   + 3.98113883008419 x[0,91,10,72,43] + 7.009772228646444 x[0,91,10,81,17]
   + 4.202775637731994 x[0,91,10,82,54] - 8.5 x[1,91,10,91,71]
   + 5.9 x[0,91,10,80,87] + 3.518033988749895 x[0,91,10,83,71]
   - 8.5 x[1,91,10,91,93] + 6.672001872658765 x[0,91,10,93,16]
   + 3.9 x[0,91,10,92,62] + 7.009772228646444 x[0,91,10,92,39]
   + 6.701162633521314 x[0,91,10,82,17]
   + 4.949509756796392 x[0,91,10,72,21] - 8.5 x[1,91,10,91,92]
   - 8.5 x[1,91,10,91,82] + 8.100877125495689 x[0,91,10,80,19]
   + 4.4 x[0,91,10,82,86] + 3.518033988749895 x[0,91,10,82,61]
   + 7.4 x[0,91,10,81,29] + 6.431128874149275 x[0,91,10,90,57]
   + 3.518033988749895 x[0,91,10,72,51] + 2.9 x[0,91,10,70,71]
   + 4.9 x[0,91,10,93,56] - 8.5 x[1,91,10,91,73] + 3.4 x[0,91,10,70,90]
   - 8.5 x[1,91,10,91,70] - 8.5 x[1,91,10,91,80] - 8.5 x[1,91,10,91,83]
   + 5.562277660168379 x[0,91,10,91,77] + 7.009772228646444 x[0,91,10,91,3]
   + 5.935533905932738 x[0,91,10,93,22]
   + 3.814213562373095 x[0,91,10,72,90] + 7.4 x[0,91,10,90,38]
   + 6.305124837953327 x[0,91,10,82,27] + 5.9 x[0,91,10,81,88]
   + 4.63606797749979 x[0,91,10,83,41] + 4.521320343559642 x[0,91,10,80,53]
   + 5.44138126514911 x[0,91,10,70,86] + 7.009772228646444 x[0,91,10,80,27]
   + 5.44138126514911 x[0,91,10,71,87] + 4.521320343559642 x[0,91,10,71,44]
   + 5.4 x[0,91,10,81,21] + 5.092582403567252 x[0,91,10,90,42]
   + 6.005551275463989 x[0,91,10,90,56]
   + 4.202775637731994 x[0,91,10,73,96]
   + 6.305124837953327 x[0,91,10,73,18] - 8.5 x[1,91,10,91,90]
   + 7.349747468305832 x[0,91,10,92,29] - 8.5 x[1,91,10,91,72]
Subject To
 CAR_FLOW[91,10]: x[0,91,10,90,70] + x[0,91,10,90,79] + x[0,91,10,73,42]
   + x[0,91,10,80,15] + x[0,91,10,90,35] + x[0,91,10,70,7]
   + x[0,91,10,81,14] + x[0,91,10,91,78] + x[0,91,10,70,26]
   + x[0,91,10,81,45] + x[1,91,10,91,81] + x[0,91,10,80,45]
   + x[0,91,10,73,51] + x[0,91,10,92,59] + x[0,91,10,90,68]
   + x[0,91,10,92,37] + x[0,91,10,91,53] + x[0,91,10,72,43]
   + x[0,91,10,81,17] + x[0,91,10,82,54] + x[1,91,10,91,71]
   + x[0,91,10,80,87] + x[0,91,10,83,71] + x[1,91,10,91,93]
   + x[0,91,10,93,16] + x[0,91,10,92,62] + x[0,91,10,92,39]
   + x[0,91,10,82,17] + x[0,91,10,72,21] + x[1,91,10,91,92]
   + x[1,91,10,91,82] + x[0,91,10,80,19] + x[0,91,10,82,86]
   + x[0,91,10,82,61] + x[0,91,10,81,29] + x[0,91,10,90,57]
   + x[0,91,10,72,51] + x[0,91,10,70,71] + x[0,91,10,93,56]
   + x[1,91,10,91,73] + x[0,91,10,70,90] + x[1,91,10,91,70]
   + x[1,91,10,91,80] + x[1,91,10,91,83] + x[1,91,10,91,91]
   + x[0,91,10,91,77] + x[0,91,10,91,91] + x[0,91,10,91,3]
   + x[0,91,10,93,22] + x[0,91,10,72,90] + x[0,91,10,90,38]
   + x[0,91,10,82,27] + x[0,91,10,81,88] + x[0,91,10,83,41]
   + x[0,91,10,80,53] + x[0,91,10,70,86] + x[0,91,10,80,27]
   + x[0,91,10,71,87] + x[0,91,10,71,44] + x[0,91,10,81,21]
   + x[0,91,10,90,42] + x[0,91,10,90,56] + x[0,91,10,73,96]
   + x[0,91,10,73,18] + x[1,91,10,91,90] + x[0,91,10,92,29]
   + x[1,91,10,91,72] = 1
 TRIP_FLOW[80,19]: x[0,91,10,80,19] <= 1
 TRIP_FLOW[73,42]: x[0,91,10,73,42] <= 1
 TRIP_FLOW[70,71]: x[0,91,10,70,71] <= 1
 TRIP_FLOW[80,87]: x[0,91,10,80,87] <= 1
 TRIP_FLOW[92,39]: x[0,91,10,92,39] <= 1
 TRIP_FLOW[71,44]: x[0,91,10,71,44] <= 1
 TRIP_FLOW[90,57]: x[0,91,10,90,57] <= 1
 TRIP_FLOW[92,29]: x[0,91,10,92,29] <= 1
 TRIP_FLOW[82,61]: x[0,91,10,82,61] <= 1
 TRIP_FLOW[81,17]: x[0,91,10,81,17] <= 1
 TRIP_FLOW[90,35]: x[0,91,10,90,35] <= 1
 TRIP_FLOW[82,17]: x[0,91,10,82,17] <= 1
 TRIP_FLOW[71,87]: x[0,91,10,71,87] <= 1
 TRIP_FLOW[81,88]: x[0,91,10,81,88] <= 1
 TRIP_FLOW[70,7]: x[0,91,10,70,7] <= 1
 TRIP_FLOW[81,14]: x[0,91,10,81,14] <= 1
 TRIP_FLOW[91,78]: x[0,91,10,91,78] <= 1
 TRIP_FLOW[91,77]: x[0,91,10,91,77] <= 1
 TRIP_FLOW[81,21]: x[0,91,10,81,21] <= 2
 TRIP_FLOW[73,96]: x[0,91,10,73,96] <= 1
 TRIP_FLOW[92,37]: x[0,91,10,92,37] <= 1
 TRIP_FLOW[93,16]: x[0,91,10,93,16] <= 1
 TRIP_FLOW[93,56]: x[0,91,10,93,56] <= 1
 TRIP_FLOW[90,79]: x[0,91,10,90,79] <= 1
 TRIP_FLOW[90,42]: x[0,91,10,90,42] <= 1
 TRIP_FLOW[72,21]: x[0,91,10,72,21] <= 1
 TRIP_FLOW[92,62]: x[0,91,10,92,62] <= 1
 TRIP_FLOW[72,51]: x[0,91,10,72,51] <= 1
 TRIP_FLOW[83,41]: x[0,91,10,83,41] <= 1
 TRIP_FLOW[80,45]: x[0,91,10,80,45] <= 1
 TRIP_FLOW[83,71]: x[0,91,10,83,71] <= 1
 TRIP_FLOW[82,86]: x[0,91,10,82,86] <= 1
 TRIP_FLOW[90,38]: x[0,91,10,90,38] <= 1
 TRIP_FLOW[81,29]: x[0,91,10,81,29] <= 1
 TRIP_FLOW[72,43]: x[0,91,10,72,43] <= 1
 TRIP_FLOW[90,70]: x[0,91,10,90,70] <= 1
 TRIP_FLOW[73,51]: x[0,91,10,73,51] <= 1
 TRIP_FLOW[70,26]: x[0,91,10,70,26] <= 1
 TRIP_FLOW[91,3]: x[0,91,10,91,3] <= 1
 TRIP_FLOW[81,45]: x[0,91,10,81,45] <= 1
 TRIP_FLOW[82,54]: x[0,91,10,82,54] <= 1
 TRIP_FLOW[80,27]: x[0,91,10,80,27] <= 1
 TRIP_FLOW[70,86]: x[0,91,10,70,86] <= 1
 TRIP_FLOW[80,15]: x[0,91,10,80,15] <= 1
 TRIP_FLOW[92,59]: x[0,91,10,92,59] <= 1
 TRIP_FLOW[82,27]: x[0,91,10,82,27] <= 1
 TRIP_FLOW[90,68]: x[0,91,10,90,68] <= 1
 TRIP_FLOW[90,56]: x[0,91,10,90,56] <= 1
 TRIP_FLOW[80,53]: x[0,91,10,80,53] <= 1
 TRIP_FLOW[73,18]: x[0,91,10,73,18] <= 1
 TRIP_FLOW[70,90]: x[0,91,10,70,90] <= 1
 TRIP_FLOW[72,90]: x[0,91,10,72,90] <= 1
 TRIP_FLOW[91,53]: x[0,91,10,91,53] <= 1
 TRIP_FLOW[93,22]: x[0,91,10,93,22] <= 1
Bounds
End
